
Gurobi 11.0.1 (win64) logging started Tue Apr 30 17:21:23 2024

Set parameter LogFile to value "gurobi.log"

Gurobi 11.0.1 (win64) logging started Tue Apr 30 19:49:37 2024

Set parameter LogFile to value "gurobi.log"

Gurobi 11.0.1 (win64) logging started Tue Apr 30 20:01:25 2024

Set parameter LogFile to value "gurobi.log"
